n_res = 4;
rcap = [22, 22, 40, 88];
rtype = [1, 1, 2, 2];
n_tasks = 16;
modes = [ {1, 2}, {3, 4}, {5, 6}, {7, 8}, {9, 10}, {11, 12}, {13, 14}, {15, 16}, {17, 18}, {19, 20}, {21, 22}, {23, 24}, {25, 26}, {27, 28}, {29, 30}, {31, 32} ];
succ = [ {7, 12, 13}, {4}, {5, 7, 13}, {5, 13}, {6, 8, 16}, {9, 12}, {11, 14, 16}, {9, 10, 11}, {14}, {12, 14}, {15}, {15}, {15, 16}, {}, {}, {} ];
n_opt = 32;
dur = [5, 9, 5, 6, 3, 5, 3, 10, 4, 9, 5, 10, 1, 9, 3, 6, 10, 10, 2, 7, 3, 8, 1, 8, 4, 6, 9, 10, 3, 3, 4, 5];
rreq = [|  2,  2,  0,  4,  0,  0,  3,  3,  0,  2,  0,  5,  6,  6,  7,  0,  4,  0,  4,  4,  0,  7,  0,  0,  0,  3,  0,  8,  0, 10,  6,  0
        |  0,  0,  3,  0,  7,  6,  0,  0,  1,  0,  3,  0,  0,  0,  0,  5,  0,  5,  0,  0, 10,  0,  7,  6,  8,  0,  7,  0,  6,  0,  0, 10
        |  0,  8,  3,  3,  5,  0,  0,  0,  0,  0,  0,  0,  0,  0,  0,  0,  0,  7,  2,  0,  0,  0,  9,  8,  0,  5,  1,  0,  0,  0,  0,  0
        |  5,  0,  0,  0,  0,  2,  4,  3,  6,  5,  5,  4,  8,  5,  5,  4,  8,  0,  0,  6,  8,  5,  0,  0,  8,  0,  0,  9,  7,  7,  7,  5 |];
